datasets/2-dimensional/CL_01_25_07.vbp
2
1000 1000 
25
110 353 30
388 285 72
367 303 4
314 272 88
297 160 54
182 334 64
236 359 90
225 203 26
315 232 94
175 313 28
169 113 72
166 298 49
131 135 54
132 191 19
334 232 28
105 125 61
111 136 84
220 333 23
396 281 67
109 249 53
123 301 54
105 306 16
123 229 9
343 137 54
132 198 77
