datasets/2-dimensional/CL_01_25_07.txt
1000 1000 
0 30 110 353 
1 72 388 285 
2 4 367 303 
3 88 314 272 
4 54 297 160 
5 64 182 334 
6 90 236 359 
7 26 225 203 
8 94 315 232 
9 28 175 313 
10 72 169 113 
11 49 166 298 
12 54 131 135 
13 19 132 191 
14 28 334 232 
15 61 105 125 
16 84 111 136 
17 23 220 333 
18 67 396 281 
19 53 109 249 
20 54 123 301 
21 16 105 306 
22 9 123 229 
23 54 343 137 
24 77 132 198 
